 O                                      
    1.000000000000000     
    28.0000000000000000    0.0000000000000000    0.0000000000000000
     0.0000000000000000   28.0000000000000000    0.0000000000000000
     0.0000000000000000    0.0000000000000000   29.5000000000000000
   O 
     2
Direct
  0.5000000000000000  0.5000000000000000  0.4790611286445794
  0.5000000000000000  0.5000000000000000  0.5209388713554205

  0.00000000E+00  0.00000000E+00  0.00000000E+00
  0.00000000E+00  0.00000000E+00  0.00000000E+00
