INCAR created by Atomic Simulation Environment
 ENCUT = 400.000000
 SIGMA = 0.010000
 POTIM = 0.200000
 EDIFF = 1.00e-06
 EDIFFG = -4.00e-02
 ALGO = Fast
 ISPIN = 2
 ISMEAR = 1
 ISTART = 0
 NWRITE = 1
 VOSKOWN = 1
 NELM = 400
 NFREE = 2
 NSW = 1000
 NELMDL = -10
 IBRION = 1
 NPAR = 1
 ISIF = 2
 LCHARG = .FALSE.
 LWAVE = .FALSE.
 LVTOT = .FALSE.
 LREAL = Auto
