 O 
 1.0000000000000000
    28.0000000000000000    0.0000000000000000    0.0000000000000000
     0.0000000000000000   28.0000000000000000    0.0000000000000000
     0.0000000000000000    0.0000000000000000   29.5000000000000000
   2
Cartesian
 14.0000000000000000 14.0000000000000000 14.0000000000000000
 14.0000000000000000 14.0000000000000000 15.5000000000000000
